001 001 001 001 001 002 002 003 008 005 005 007 004 004 002 003 004 005 006 004 003 003 006 004 008 007 007 005 005 009 011
001 001 001 000 001 001 002 003 003 004 005 006 004 004 003 004 003 004 008 006 003 003 002 003 006 008 004 006 004 008 006
001 001 001 001 001 001 001 003 003 004 004 005 004 005 004 003 004 002 004 003 004 003 003 004 006 007 004 004 003 006 007
001 001 001 001 001 001 001 002 003 004 005 005 005 003 003 002 002 002 003 003 004 005 002 004 005 005 005 005 006 005 005
001 001 001 001 001 002 002 002 003 003 003 004 004 003 002 004 005 004 004 003 003 003 002 003 005 005 005 005 005 008 005
001 001 001 001 001 002 002 002 004 002 003 005 003 004 002 004 006 003 004 004 002 004 003 004 006 005 004 004 005 008 004
001 001 001 001 001 002 001 001 003 003 004 004 004 003 003 005 -99 003 003 003 004 002 003 004 004 005 006 004 005 005 005
001 001 002 001 -99 001 002 003 002 003 003 004 003 004 003 004 003 003 003 003 003 003 003 004 004 006 003 005 005 004 005
001 002 002 002 001 001 002 002 002 002 003 004 002 003 002 002 003 002 003 002 003 003 003 003 004 007 003 003 006 003 004
002 001 002 002 002 -99 -99 003 002 003 003 003 003 002 002 002 003 003 004 003 003 004 006 005 004 004 006 003 004 004 003
001 001 001 002 002 -99 002 003 002 002 003 003 003 002 002 002 003 002 003 003 002 004 006 005 006 007 011 003 003 004 003
001 001 001 002 002 002 001 002 002 002 002 003 001 002 001 002 003 003 003 004 003 004 005 006 006 010 006 005 004 004 004
001 001 001 001 002 001 001 002 001 002 002 003 002 002 001 002 002 003 003 004 004 004 005 005 006 006 009 003 004 005 005
001 001 001 001 002 002 002 003 003 003 002 002 001 001 001 002 003 003 003 003 004 006 003 003 005 006 006 006 005 005 005
001 001 001 001 002 002 002 001 002 002 002 001 001 001 001 001 003 003 002 002 003 003 003 002 004 006 006 009 004 004 004
001 001 001 001 001 002 001 001 002 001 002 001 001 001 001 001 002 002 003 003 003 003 002 003 004 006 006 007 006 005 004
001 001 000 001 001 001 001 001 002 001 001 001 000 001 001 001 001 001 001 002 002 003 006 002 004 004 004 007 008 004 004
001 001 001 -99 001 001 000 000 001 001 001 000 000 001 001 001 001 001 001 003 004 005 005 004 002 003 004 007 010 005 005
000 001 000 001 -99 -99 000 001 001 000 001 000 000 000 000 001 001 001 001 003 003 005 005 005 004 004 004 004 006 005 005
000 000 000 000 -99 -99 000 000 000 001 001 000 000 000 000 001 001 001 001 002 003 005 004 005 004 003 002 002 004 006 007
001 000 000 000 000 -99 -99 001 000 000 000 000 000 000 000 001 001 001 002 003 004 005 003 004 004 003 002 002 004 006 007
000 000 000 000 000 000 001 001 000 000 000 000 000 000 000 000 001 001 002 002 003 003 003 -99 005 002 002 -99 -99 007 007
000 000 000 000 000 000 000 001 000 000 000 000 000 000 000 000 001 001 001 001 002 002 003 -99 005 002 002 -99 -99 007 007
000 000 000 000 000 000 000 000 000 000 000 000 000 000 000 000 000 001 001 001 001 002 002 -99 -99 -99 -99 -99 -99 007 007
000 000 000 000 000 000 000 000 000 000 000 -99 -99 -99 000 000 000 000 001 002 001 002 002 -99 -99 -99 -99 -99 -99 006 006
000 000 000 000 000 000 000 000 000 000 000 -99 -99 000 000 000 000 000 001 002 002 002 002 -99 -99 -99 -99 -99 -99 004 004
000 000 000 000 000 000 000 000 000 000 000 -99 -99 000 000 001 000 001 001 002 002 002 001 -99 -99 -99 -99 -99 -99 004 003
000 000 000 000 000 000 000 000 000 000 000 -99 000 000 000 001 000 001 001 002 001 000 000 -99 -99 -99 -99 -99 003 003 003
000 000 000 000 000 000 000 000 000 000 000 -99 000 000 000 000 000 001 001 001 000 000 -99 -99 -99 -99 -99 -99 003 003 003
000 000 000 000 000 000 000 000 000 000 000 000 -99 000 000 000 000 001 001 000 000 000 -99 -99 -99 -99 -99 -99 002 003 003
000 000 000 000 000 000 000 000 000 000 000 000 000 000 000 000 000 000 001 000 000 000 -99 -99 -99 -99 -99 -99 -99 -99 003
000 000 000 000 000 000 -99 000 000 000 000 -99 000 000 000 000 000 000 000 000 000 -99 -99 000 -99 -99 -99 -99 -99 -99 003
000 000 000 000 000 000 000 000 000 000 000 -99 000 000 -99 000 000 000 000 000 000 000 000 000 000 -99 -99 000 000 000 002
000 000 000 000 000 000 000 000 000 000 -99 000 000 000 -99 000 000 000 000 000 001 000 000 000 000 000 000 000 000 000 001
000 000 000 000 000 000 000 000 000 000 -99 000 000 000 000 000 000 000 001 002 001 000 000 000 000 000 000 000 000 000 000
000 000 000 000 000 000 000 000 000 000 000 000 000 000 -99 000 000 000 002 002 001 000 000 000 000 000 000 000 000 000 000
000 000 000 000 000 -99 000 000 000 000 000 000 000 000 000 000 000 001 002 003 001 000 000 000 000 000 000 000 000 000 000
000 000 000 000 000 -99 000 000 000 000 -99 -99 000 000 000 000 000 000 001 001 001 000 000 000 000 000 000 000 000 000 000
000 000 000 000 000 000 000 000 -99 -99 -99 000 000 000 000 000 000 000 002 002 001 000 000 000 000 000 000 000 000 000 000
000 000 000 000 000 -99 -99 000 -99 -99 000 000 000 000 000 000 000 000 001 000 000 000 000 000 000 000 000 000 000 000 -99
000 000 000 000 000 -99 -99 -99 -99 -99 000 000 000 000 000 000 000 000 000 000 000 000 000 000 000 000 000 000 000 -99 000
000 000 -99 000 -99 -99 -99 -99 -99 000 000 000 000 000 000 000 000 000 000 000 000 000 000 000 -99 000 000 000 000 000 000
000 000 -99 -99 -99 -99 -99 -99 -99 000 000 -99 000 000 000 000 000 000 000 000 -99 000 000 -99 -99 000 000 -99 000 000 000
000 -99 -99 -99 -99 -99 -99 -99 -99 000 000 000 000 000 000 000 000 000 000 000 000 000 000 -99 -99 -99 -99 -99 -99 000 000
000 -99 -99 -99 -99 -99 -99 -99 -99 000 000 000 000 000 000 000 000 000 000 000 000 000 -99 -99 -99 -99 -99 -99 -99 -99 000
-99 -99 -99 -99 -99 -99 -99 -99 -99 000 000 000 000 000 000 -99 000 000 000 000 000 000 -99 -99 -99 -99 -99 -99 -99 -99 000
-99 -99 -99 -99 -99 -99 -99 -99 -99 -99 -99 000 000 000 000 -99 -99 000 000 000 000 000 000 -99 -99 -99 -99 -99 -99 -99 000
-99 -99 -99 -99 -99 -99 -99 -99 -99 -99 000 000 000 000 000 -99 -99 -99 -99 000 000 000 000 000 000 -99 -99 -99 -99 -99 -99
-99 -99 -99 -99 -99 -99 -99 -99 -99 000 -99 000 000 000 000 -99 -99 -99 -99 000 000 000 000 000 -99 000 000 000 -99 -99 -99
-99 -99 -99 -99 -99 -99 -99 -99 000 000 -99 -99 -99 000 -99 -99 -99 -99 -99 000 000 000 000 000 -99 000 000 -99 -99 -99 -99
-99 -99 -99 -99 -99 -99 -99 000 000 000 -99 -99 -99 000 -99 -99 -99 -99 000 000 000 000 000 -99 -99 000 000 -99 -99 -99 -99
-99 -99 -99 -99 -99 -99 -99 000 000 -99 -99 -99 -99 -99 -99 -99 -99 000 000 000 000 -99 000 -99 -99 000 -99 -99 -99 -99 -99
-99 -99 -99 -99 -99 -99 -99 -99 -99 -99 000 -99 -99 -99 -99 -99 -99 000 000 000 000 -99 -99 000 000 -99 -99 -99 -99 -99 -99
-99 -99 -99 -99 -99 -99 -99 -99 000 000 000 -99 -99 -99 -99 -99 -99 000 000 000 -99 -99 -99 -99 000 -99 -99 -99 -99 -99 -99
-99 -99 -99 -99 -99 -99 -99 -99 000 000 000 -99 -99 -99 -99 -99 -99 000 000 -99 -99 -99 -99 -99 -99 -99 -99 -99 -99 -99 -99
